/* Objective function */
min: +5000 C1 +5000 C2 +5000 C3 +5000 C4 +5000 C5 +5000 C6 +5000 C7 +5000 C8 +5000 C9 +5000 C10 +5000 C11
 +5000 C12 +5000 C13 +5000 C14 +5000 C15 +5000 C16 +5000 C17 +5000 C18 +5000 C19 +5000 C20 +5000 C21
 +5000 C22 +5000 C23 +5000 C24 +5000 C25 +5000 C26 +5000 C27 +5000 C28 +5000 C29 +5000 C30 +5000 C31
 +5000 C32 +5000 C33 +5000 C34 +5000 C35 +5000 C36 +5000 C37 +5000 C38 +5000 C39 +5000 C40 +5000 C41
 +5000 C42 +5000 C43 +5000 C44 +5000 C45 +5000 C46 +5000 C47 +5000 C48 +5000 C49 +5000 C50 +5000 C51
 +5000 C52 +5000 C53 +5000 C54 +5000 C55 +5000 C56 +5000 C57 +5000 C58 +5000 C59 +5000 C60 +5000 C61
 +5000 C62 +5000 C63 +5000 C64 +5000 C65 +5000 C66 +5000 C67 +5000 C68 +5000 C69 +5000 C70 +5000 C71
 +5000 C72 +5000 C73 +5000 C74 +5000 C75 +5000 C76 +5000 C77 +5000 C78 +5000 C79 +5000 C80 +5000 C81
 +5000 C82 +5000 C83 +5000 C84 +5000 C85 +5000 C86 +5000 C87 +5000 C88 +5000 C89 +5000 C90 +5000 C91
 +5000 C92 +5000 C93 +5000 C94 +5000 C95 +5000 C96 +5000 C97 +5000 C98 +5000 C99 +5000 C100 +5000 C101
 +5000 C102 +5000 C103 +5000 C104 +5000 C105 +5000 C106 +5000 C107 +5000 C108 +5000 C109 +5000 C110 +5000 C111
 +5000 C112 +5000 C113 +5000 C114 +5000 C115 +5000 C116 +5000 C117 +5000 C118 +5000 C119 +5000 C120 +5000 C121
 +5000 C122 +5000 C123 +5000 C124 +5000 C125 +5000 C126 +5000 C127 +5000 C128 +5000 C129 +5000 C130 +5000 C131
 +5000 C132 +5000 C133 +5000 C134 +5000 C135 +5000 C136 +5000 C137 +5000 C138 +5000 C139 +5000 C140 +5000 C141
 +5000 C142 +5000 C143 +5000 C144 +5000 C145 +5000 C146 +5000 C147 +5000 C148 +5000 C149 +5000 C150 +5000 C151
 +5000 C152 +5000 C153 +5000 C154 +5000 C155 +5000 C156 +5000 C157 +5000 C158 +5000 C159 +5000 C160 +5000 C161
 +5000 C162 +5000 C163 +5000 C164 +5000 C165 +5000 C166 +5000 C167 +5000 C168 +5000 C169 +5000 C170 +5000 C171
 +5000 C172 +5000 C173 +5000 C174 +5000 C175 +5000 C176 +5000 C177 +5000 C178 +5000 C179 +5000 C180 +5000 C181
 +5000 C182 +5000 C183 +5000 C184 +5000 C185 +5000 C186 +5000 C187 +5000 C188 +5000 C189 +5000 C190 +5000 C191
 +5000 C192 +5000 C193 +5000 C194 +5000 C195 +5000 C196 +5000 C197 +5000 C198 +5000 C199 +5000 C200 +5000 C201
 +5000 C202 +5000 C203 +5000 C204 +5000 C205 +5000 C206 +5000 C207 +5000 C208 +5000 C209 +5000 C210 +5000 C211
 +5000 C212 +5000 C213 +5000 C214 +5000 C215 +5000 C216 +5000 C217 +5000 C218 +5000 C219 +5000 C220 +5000 C221
 +5000 C222 +5000 C223 +5000 C224 +5000 C225 +5000 C226 +5000 C227 +5000 C228 +5000 C229 +5000 C230 +5000 C231
 +5000 C232 +5000 C233 +5000 C234 +5000 C235 +5000 C236 +5000 C237 +5000 C238 +5000 C239 +5000 C240 +5000 C241
 +5000 C242 +5000 C243 +5000 C244 +5000 C245 +5000 C246 +5000 C247 +5000 C248 +5000 C249 +5000 C250 +5000 C251
 +5000 C252 +5000 C253 +5000 C254 +5000 C255 +5000 C256 +5000 C257 +5000 C258 +5000 C259 +5000 C260 +5000 C261
 +5000 C262 +5000 C263 +5000 C264 +5000 C265 +5000 C266 +5000 C267 +5000 C268 +5000 C269 +5000 C270 +5000 C271
 +5000 C272 +5000 C273 +5000 C274 +5000 C275 +5000 C276 +5000 C277 +5000 C278 +5000 C279 +5000 C280 +5000 C281
 +5000 C282 +5000 C283 +5000 C284 +5000 C285 +5000 C286 +5000 C287 +5000 C288 +5000 C289 +5000 C290 +5000 C291
 +5000 C292 +5000 C293 +5000 C294 +5000 C295 +5000 C296 +5000 C297 +5000 C298 +5000 C299 +5000 C300 +5000 C301
 +5000 C302 +5000 C303 +5000 C304 +5000 C305 +5000 C306 +5000 C307 +5000 C308 +5000 C309 +5000 C310 +5000 C311
 +5000 C312 +5000 C313 +5000 C314 +5000 C315 +5000 C316 +5000 C317 +5000 C318 +5000 C319 +5000 C320 +5000 C321
 +5000 C322 +5000 C323 +5000 C324 +5000 C325 +5000 C326 +5000 C327 +5000 C328 +5000 C329 +5000 C330 +5000 C331
 +5000 C332 +5000 C333 +5000 C334 +5000 C335 +5000 C336 +5000 C337 +5000 C338 +5000 C339 +5000 C340 +5000 C341
 +5000 C342 +5000 C343 +5000 C344 +5000 C345 +5000 C346 +5000 C347 +5000 C348 +5000 C349 +5000 C350 +5000 C351
 +5000 C352 +5000 C353 +5000 C354 +5000 C355 +5000 C356 +5000 C357 +5000 C358 +5000 C359 +5000 C360 +5000 C361
 +5000 C362 +5000 C363 +5000 C364 +5000 C365 +5000 C366 +5000 C367 +5000 C368 +5000 C369 +5000 C370 +5000 C371
 +5000 C372 +5000 C373 +5000 C374 +5000 C375 +5000 C376 +5000 C377 +5000 C378 +5000 C379 +5000 C380 +5000 C381
 +5000 C382 +5000 C383 +5000 C384 +5000 C385 +5000 C386 +5000 C387 +5000 C388 +5000 C389 +5000 C390 +5000 C391
 +5000 C392 +5000 C393 +5000 C394 +5000 C395 +5000 C396 +5000 C397 +5000 C398 +5000 C399 +5000 C400 +5000 C401
 +5000 C402 +5000 C403 +5000 C404 +5000 C405 +5000 C406 +5000 C407 +5000 C408 +5000 C409 +5000 C410 +5000 C411
 +5000 C412 +5000 C413 +5000 C414 +5000 C415 +5000 C416 +5000 C417 +5000 C418 +5000 C419 +5000 C420 +5000 C421
 +5000 C422 +5000 C423 +5000 C424 +5000 C425 +5000 C426 +5000 C427 +5000 C428 +5000 C429 +5000 C430 +5000 C431
 +5000 C432 +5000 C433 +5000 C434 +5000 C435 +5000 C436 +5000 C437 +5000 C438 +5000 C439 +5000 C440 +5000 C441
 +5000 C442 +5000 C443 +5000 C444 +5000 C445 +5000 C446 +5000 C447 +5000 C448 +5000 C449 +5000 C450 +C451
 +C452 +C453 +C454 +C455 +C456 +C457 +C458 +C459 +C460 +C461 +C462 +C463 +C464 +C465 +46000 C466 +54000 C467
 +30000 C468 +30000 C469 +30000 C470 +30000 C471 +54000 C472 +30000 C473 +30000 C474 +30000 C475 +62000 C476
 +30000 C477 +34000 C478 +58000 C479 +42000 C480;

/* Constraints */
R1: +100 C451 >= 21.25;
R2: +100 C452 >= 21.25;
R3: +100 C453 >= 18.75;
R4: +100 C454 >= 1.25;
R5: +100 C455 >= 16.25;
R6: +100 C456 >= 40;
R7: +100 C457 >= 8.75;
R8: +100 C458 >= 18.75;
R9: +100 C459 >= 142.5;
R10: +100 C460 >= 13.75;
R11: +100 C461 >= 57.5;
R12: +100 C462 >= 1.25;
R13: +100 C463 >= 13.75;
R14: +100 C464 >= 8.75;
R15: +100 C465 >= 116.25;
+C1 +C2 -C451 = 0;
+C1 +C12 +C17 -C451 = 0;
-C2 +C12 +C14 -C23 = 0;
+C17 +C19 +C20 -C24 -C29 = 0;
-C14 -C19 +C23 +C24 +C25 -C30 = 0;
-C20 -C25 +C29 +C30 = 0;
+C31 +C32 -C452 = 0;
-C31 +C37 +C38 -C47 = 0;
+C32 +C37 +C53 -C452 = 0;
-C38 +C47 +C49 +C50 -C54 -C59 = 0;
-C49 +C53 +C54 +C55 -C60 = 0;
-C50 -C55 +C59 +C60 = 0;
+C61 +C62 -C453 = 0;
-C61 +C67 +C68 -C72 = 0;
-C62 -C67 +C72 +C74 -C83 = 0;
+C68 +C84 +C89 -C453 = 0;
-C74 +C83 +C84 +C85 -C90 = 0;
-C85 +C89 +C90 = 0;
+C91 +C92 -C454 = 0;
-C91 +C97 +C98 -C102 -C107 = 0;
-C92 -C97 +C102 +C104 = 0;
-C98 +C107 +C109 +C110 -C119 = 0;
+C104 +C109 +C120 -C454 = 0;
-C110 +C119 +C120 = 0;
+C121 +C122 -C455 = 0;
-C121 +C127 +C128 -C132 -C137 = 0;
-C122 -C127 +C132 +C134 -C143 = 0;
-C128 +C137 +C139 +C140 -C144 = 0;
-C134 -C139 +C143 +C144 +C145 = 0;
+C140 +C145 -C455 = 0;
+C152 -C156 = 0;
+C156 +C157 +C158 -C456 = 0;
+C152 +C157 +C173 -C456 = 0;
-C158 +C169 +C170 -C174 -C179 = 0;
-C169 +C173 +C174 +C175 -C180 = 0;
-C170 -C175 +C179 +C180 = 0;
+C182 -C186 -C191 = 0;
+C186 +C187 +C188 -C457 = 0;
-C182 -C187 +C191 +C194 -C203 = 0;
+C188 +C204 +C209 -C457 = 0;
-C194 +C203 +C204 +C205 -C210 = 0;
-C205 +C209 +C210 = 0;
+C212 -C216 -C221 = 0;
+C216 +C217 +C218 -C458 = 0;
-C212 -C217 +C221 +C224 = 0;
-C218 +C229 +C230 -C239 = 0;
+C224 +C229 +C240 -C458 = 0;
-C230 +C239 +C240 = 0;
+C242 -C246 -C251 = 0;
+C246 +C247 +C248 -C459 = 0;
-C242 -C247 +C251 +C254 -C263 = 0;
-C248 +C259 +C260 -C264 = 0;
-C254 -C259 +C263 +C264 +C265 = 0;
+C260 +C265 -C459 = 0;
+C271 -C276 -C281 = 0;
-C271 +C276 +C278 -C282 = 0;
+C281 +C282 +C284 -C460 = 0;
+C278 +C294 +C299 -C460 = 0;
-C284 +C294 +C295 -C300 = 0;
-C295 +C299 +C300 = 0;
+C301 -C306 -C311 = 0;
-C301 +C306 +C308 -C312 -C317 = 0;
+C311 +C312 +C314 -C461 = 0;
-C308 +C317 +C319 +C320 -C329 = 0;
+C314 +C319 +C330 -C461 = 0;
-C320 +C329 +C330 = 0;
+C331 -C336 -C341 = 0;
-C331 +C336 +C338 -C342 -C347 = 0;
+C341 +C342 +C344 -C462 = 0;
-C338 +C347 +C349 +C350 -C354 = 0;
-C344 -C349 +C354 +C355 = 0;
+C350 +C355 -C462 = 0;
+C361 +C362 -C366 -C371 = 0;
-C361 +C366 +C367 -C372 -C377 = 0;
-C362 -C367 +C371 +C372 +C374 = 0;
+C377 +C379 +C380 -C463 = 0;
+C374 +C379 +C390 -C463 = 0;
-C380 +C390 = 0;
+C391 +C392 -C396 -C401 = 0;
-C391 +C396 +C397 -C402 -C407 = 0;
-C392 -C397 +C401 +C402 +C404 -C413 = 0;
+C407 +C409 +C410 -C464 = 0;
-C404 -C409 +C413 +C415 = 0;
+C410 +C415 -C464 = 0;
+C421 +C422 -C426 -C431 = 0;
-C421 +C426 +C427 +C428 -C432 -C437 = 0;
-C422 -C427 +C431 +C432 -C443 = 0;
-C428 +C437 +C440 -C444 = 0;
+C443 +C444 +C445 -C465 = 0;
+C440 +C445 -C465 = 0;
+C1 +C6 +C31 +C36 +C61 +C66 +C91 +C96 +C121 +C126 +C151 +C156 +C181 +C186 +C211 +C216 +C241 +C246 +C271
 +C276 +C301 +C306 +C331 +C336 +C361 +C366 +C391 +C396 +C421 +C426 +C466 <= 100;
+C2 +C11 +C32 +C41 +C62 +C71 +C92 +C101 +C122 +C131 +C152 +C161 +C182 +C191 +C212 +C221 +C242 +C251 +C272
 +C281 +C302 +C311 +C332 +C341 +C362 +C371 +C392 +C401 +C422 +C431 +C467 <= 100;
+C3 +C16 +C33 +C46 +C63 +C76 +C93 +C106 +C123 +C136 +C153 +C166 +C183 +C196 +C213 +C226 +C243 +C256 +C273
 +C286 +C303 +C316 +C333 +C346 +C363 +C376 +C393 +C406 +C423 +C436 +C468 <= 0;
+C4 +C21 +C34 +C51 +C64 +C81 +C94 +C111 +C124 +C141 +C154 +C171 +C184 +C201 +C214 +C231 +C244 +C261 +C274
 +C291 +C304 +C321 +C334 +C351 +C364 +C381 +C394 +C411 +C424 +C441 +C469 <= 0;
+C5 +C26 +C35 +C56 +C65 +C86 +C95 +C116 +C125 +C146 +C155 +C176 +C185 +C206 +C215 +C236 +C245 +C266 +C275
 +C296 +C305 +C326 +C335 +C356 +C365 +C386 +C395 +C416 +C425 +C446 +C470 <= 0;
+C7 +C12 +C37 +C42 +C67 +C72 +C97 +C102 +C127 +C132 +C157 +C162 +C187 +C192 +C217 +C222 +C247 +C252 +C277
 +C282 +C307 +C312 +C337 +C342 +C367 +C372 +C397 +C402 +C427 +C432 +C471 <= 100;
+C8 +C17 +C38 +C47 +C68 +C77 +C98 +C107 +C128 +C137 +C158 +C167 +C188 +C197 +C218 +C227 +C248 +C257 +C278
 +C287 +C308 +C317 +C338 +C347 +C368 +C377 +C398 +C407 +C428 +C437 +C472 <= 100;
+C9 +C22 +C39 +C52 +C69 +C82 +C99 +C112 +C129 +C142 +C159 +C172 +C189 +C202 +C219 +C232 +C249 +C262 +C279
 +C292 +C309 +C322 +C339 +C352 +C369 +C382 +C399 +C412 +C429 +C442 +C473 <= 0;
+C10 +C27 +C40 +C57 +C70 +C87 +C100 +C117 +C130 +C147 +C160 +C177 +C190 +C207 +C220 +C237 +C250 +C267
 +C280 +C297 +C310 +C327 +C340 +C357 +C370 +C387 +C400 +C417 +C430 +C447 +C474 <= 0;
+C13 +C18 +C43 +C48 +C73 +C78 +C103 +C108 +C133 +C138 +C163 +C168 +C193 +C198 +C223 +C228 +C253 +C258
 +C283 +C288 +C313 +C318 +C343 +C348 +C373 +C378 +C403 +C408 +C433 +C438 +C475 <= 0;
+C14 +C23 +C44 +C53 +C74 +C83 +C104 +C113 +C134 +C143 +C164 +C173 +C194 +C203 +C224 +C233 +C254 +C263
 +C284 +C293 +C314 +C323 +C344 +C353 +C374 +C383 +C404 +C413 +C434 +C443 +C476 <= 100;
+C15 +C28 +C45 +C58 +C75 +C88 +C105 +C118 +C135 +C148 +C165 +C178 +C195 +C208 +C225 +C238 +C255 +C268
 +C285 +C298 +C315 +C328 +C345 +C358 +C375 +C388 +C405 +C418 +C435 +C448 +C477 <= 0;
+C19 +C24 +C49 +C54 +C79 +C84 +C109 +C114 +C139 +C144 +C169 +C174 +C199 +C204 +C229 +C234 +C259 +C264
 +C289 +C294 +C319 +C324 +C349 +C354 +C379 +C384 +C409 +C414 +C439 +C444 +C478 <= 100;
+C20 +C29 +C50 +C59 +C80 +C89 +C110 +C119 +C140 +C149 +C170 +C179 +C200 +C209 +C230 +C239 +C260 +C269
 +C290 +C299 +C320 +C329 +C350 +C359 +C380 +C389 +C410 +C419 +C440 +C449 +C479 <= 100;
+C25 +C30 +C55 +C60 +C85 +C90 +C115 +C120 +C145 +C150 +C175 +C180 +C205 +C210 +C235 +C240 +C265 +C270
 +C295 +C300 +C325 +C330 +C355 +C360 +C385 +C390 +C415 +C420 +C445 +C450 +C480 <= 100;

/* Variable bounds */
C466 <= 1;
C467 <= 1;
C468 <= 1;
C469 <= 1;
C470 <= 1;
C471 <= 1;
C472 <= 1;
C473 <= 1;
C474 <= 1;
C475 <= 1;
C476 <= 1;
C477 <= 1;
C478 <= 1;
C479 <= 1;
C480 <= 1;

/* Integer definitions */
int C1,C2,C3,C4,C5,C6,C7,C8,C9,C10,C11,C12,C13,C14,C15,C16,C17,C18,C19,C20,C21,C22,C23,C24,C25,C26,C27,C28,C29,C30,C31,C32,C33,C34,C35,C36,C37,C38,C39,C40,C41,C42,C43,C44,C45,C46,C47,C48,C49,C50,C51,C52,C53,C54,C55,C56,C57,C58,C59,C60,C61,C62,C63,C64,C65,C66,C67,C68,C69,C70,C71,C72,C73,C74,C75,C76,C77,C78,C79,C80,C81,C82,C83,C84,C85,C86,C87,C88,C89,C90,C91,C92,C93,C94,C95,C96,C97,C98,C99,C100,C101,C102,C103,C104,C105,C106,C107,C108,C109,C110,C111,C112,C113,C114,C115,C116,C117,C118,C119,C120,C121,C122,C123,C124,C125,C126,C127,C128,C129,C130,C131,C132,C133,C134,C135,C136,C137,C138,C139,C140,C141,C142,C143,C144,C145,C146,C147,C148,C149,C150,C151,C152,C153,C154,C155,C156,C157,C158,C159,C160,C161,C162,C163,C164,C165,C166,C167,C168,C169,C170,C171,C172,C173,C174,C175,C176,C177,C178,C179,C180,C181,C182,C183,C184,C185,C186,C187,C188,C189,C190,C191,C192,C193,C194,C195,C196,C197,C198,C199,C200,C201,C202,C203,C204,C205,C206,C207,C208,C209,C210,C211,C212,C213,C214,C215,C216,C217,C218,C219,C220,C221,C222,C223,C224,C225,C226,C227,C228,C229,C230,C231,C232,C233,C234,C235,C236,C237,C238,C239,C240,C241,C242,C243,C244,C245,C246,C247,C248,C249,C250,C251,C252,C253,C254,C255,C256,C257,C258,C259,C260,C261,C262,C263,C264,C265,C266,C267,C268,C269,C270,C271,C272,C273,C274,C275,C276,C277,C278,C279,C280,C281,C282,C283,C284,C285,C286,C287,C288,C289,C290,C291,C292,C293,C294,C295,C296,C297,C298,C299,C300,C301,C302,C303,C304,C305,C306,C307,C308,C309,C310,C311,C312,C313,C314,C315,C316,C317,C318,C319,C320,C321,C322,C323,C324,C325,C326,C327,C328,C329,C330,C331,C332,C333,C334,C335,C336,C337,C338,C339,C340,C341,C342,C343,C344,C345,C346,C347,C348,C349,C350,C351,C352,C353,C354,C355,C356,C357,C358,C359,C360,C361,C362,C363,C364,C365,C366,C367,C368,C369,C370,C371,C372,C373,C374,C375,C376,C377,C378,C379,C380,C381,C382,C383,C384,C385,C386,C387,C388,C389,C390,C391,C392,C393,C394,C395,C396,C397,C398,C399,C400,C401,C402,C403,C404,C405,C406,C407,C408,C409,C410,C411,C412,C413,C414,C415,C416,C417,C418,C419,C420,C421,C422,C423,C424,C425,C426,C427,C428,C429,C430,C431,C432,C433,C434,C435,C436,C437,C438,C439,C440,C441,C442,C443,C444,C445,C446,C447,C448,C449,C450,C451,C452,C453,C454,C455,C456,C457,C458,C459,C460,C461,C462,C463,C464,C465,C466,C467,C468,C469,C470,C471,C472,C473,C474,C475,C476,C477,C478,C479,C480;
